Version identifier: 12.10.0.0 | 2019-11-26 | 843d4de
CPXPARAM_WorkMem                                 16384
CPXPARAM_MIP_Limits_TreeMemory                   24576
Tried aggregator 2 times.
MIP Presolve eliminated 34 rows and 0 columns.
MIP Presolve added 68 rows and 0 columns.
Aggregator did 90 substitutions.
Reduced MIP has 186 rows, 165 columns, and 768 nonzeros.
Reduced MIP has 165 binaries, 0 generals, 0 SOSs, and 0 indicators.
Presolve time = 0,00 sec. (1,76 ticks)
Found incumbent of value 522,000000 after 0,00 sec. (1,99 ticks)
Probing time = 0,00 sec. (1,20 ticks)
Tried aggregator 1 time.
Detecting symmetries...
Reduced MIP has 186 rows, 165 columns, and 768 nonzeros.
Reduced MIP has 165 binaries, 0 generals, 0 SOSs, and 0 indicators.
Presolve time = 0,00 sec. (0,63 ticks)
Probing time = 0,00 sec. (1,20 ticks)
Clique table members: 599.
MIP emphasis: balance optimality and feasibility.
MIP search method: dynamic search.
Parallel mode: deterministic, using up to 16 threads.
Root relaxation solution time = 0,00 sec. (0,56 ticks)

        Nodes                                         Cuts/
   Node  Left     Objective  IInf  Best Integer    Best Bound    ItCnt     Gap

*     0+    0                          522,0000        0,0000           100,00%
*     0+    0                          505,0000        0,0000           100,00%
      0     0      277,0000   165      505,0000      277,0000       68   45,15%
*     0+    0                          495,0000      277,0000            44,04%
      0     0      280,6000   165      495,0000     Cuts: 119      101   43,31%
*     0+    0                          489,0000      280,6000            42,62%
      0     0      285,7623   165      489,0000      Cuts: 88      130   41,56%
      0     0      285,7732   165      489,0000     Cuts: 146      135   41,56%
      0     0      285,8116   165      489,0000  ZeroHalf: 14      149   41,55%
      0     0      286,0000   165      489,0000     Cuts: 146      167   41,51%
Detecting symmetries...
      0     0      286,0620   165      489,0000   ZeroHalf: 4      181   41,50%
*     0+    0                          487,0000      286,0620            41,26%
      0     0      286,1714   165      487,0000     Cuts: 146      186   41,24%
      0     0      286,2000   165      487,0000  ZeroHalf: 37      192   41,23%
      0     0      286,2000   165      487,0000   ZeroHalf: 8      198   41,23%
      0     0      286,2442   165      487,0000   ZeroHalf: 2      207   41,22%
      0     0      286,3742   165      487,0000      Cuts: 89      224   41,20%
      0     0      286,4133   165      487,0000   ZeroHalf: 4      233   41,19%
      0     0      286,4346   165      487,0000  ZeroHalf: 60      236   41,18%
*     0+    0                          472,0000      286,4346            39,31%
      0     0        cutoff            472,0000      472,0000      236    0,00%
Elapsed time = 0,14 sec. (83,96 ticks, tree = 0,01 MB, solutions = 6)

Clique cuts applied:  10
Cover cuts applied:  38
Flow cuts applied:  12
Mixed integer rounding cuts applied:  35
Zero-half cuts applied:  12
Gomory fractional cuts applied:  11

Root node processing (before b&c):
  Real time             =    0,14 sec. (83,98 ticks)
Parallel b&c, 16 threads:
  Real time             =    0,00 sec. (0,00 ticks)
  Sync time (average)   =    0,00 sec.
  Wait time (average)   =    0,00 sec.
                          ------------
Total (root+branch&cut) =    0,14 sec. (83,98 ticks)
